
Value of objective function: 0.12378350

Actual values of the variables:
pL1_div_from_law         0.123784
comp_pos0                       0
comp_neg0                       0
comp_pos1                       0
comp_neg1                       0
comp_pos2                       0
comp_neg2                       0
comp_pos3                       0
comp_neg3                       0
comp_pos4                       0
comp_neg4                       0
comp_pos5                       0
comp_neg5                       0
comp_pos6                0.123784
comp_neg6                       0
comp_pos7                       0
comp_neg7                       0
comp_pos8                       0
comp_neg8                       0
comp_pos9                       0
comp_neg9                       0
comp_pos10                      0
comp_neg10                      0
comp_pos11                      0
comp_neg11                      0
comp_pos12                      0
comp_neg12                      0
comp_pos13                      0
comp_neg13                      0
z_c0_t0               1.32138e+10
p0_c0_t0              7.77312e+08
p1_c0_t0              1.05272e+08
p2_c0_t0              1.20249e+10
p3_c0_t0              3.06336e+08
diff0                           0
normdiff0                       0
z_c0_t1               1.47752e+10
p0_c0_t1              6.82197e+08
p1_c0_t1              1.18054e+08
p2_c0_t1              1.33271e+10
p3_c0_t1               6.4786e+08
diff1                           0
normdiff1                       0
z_c1_t0               1.65566e+10
p0_c1_t0              7.93777e+08
p1_c1_t0              1.35265e+08
p2_c1_t0              1.54572e+10
p3_c1_t0              1.70339e+08
diff2                           0
normdiff2                       0
z_c1_t1               1.94959e+10
p0_c1_t1              8.07969e+08
p1_c1_t1              1.92432e+08
p2_c1_t1              1.82018e+10
p3_c1_t1              2.93666e+08
diff3                           0
normdiff3                       0
z_c2_t0               7.24754e+09
p0_c2_t0              2.68147e+08
p1_c2_t0              5.51971e+07
p2_c2_t0              6.77362e+09
p3_c2_t0              1.50576e+08
diff4                           0
normdiff4                       0
z_c2_t1               7.97123e+09
p0_c2_t1              2.19856e+08
p1_c2_t1              6.38795e+07
p2_c2_t1              7.48842e+09
p3_c2_t1              1.99067e+08
diff5                           0
normdiff5                       0
z_c3_t0               1.22612e+10
p0_c3_t0              4.85141e+08
p1_c3_t0              9.43659e+07
p2_c3_t0              1.27443e+10
p3_c3_t0              4.55098e+08
diff6                 1.51773e+09
normdiff6                0.123784
z_c3_t1               1.42798e+10
p0_c3_t1              5.54229e+08
p1_c3_t1              9.56852e+07
p2_c3_t1              1.30162e+10
p3_c3_t1              6.13648e+08
diff7                           0
normdiff7                       0
z_c4_t0               7.97197e+09
p0_c4_t0              2.14129e+08
p1_c4_t0              1.06652e+08
p2_c4_t0               7.5303e+09
p3_c4_t0              1.20886e+08
diff8                           0
normdiff8                       0
z_c4_t1                8.9819e+09
p0_c4_t1              2.23633e+08
p1_c4_t1              9.72162e+07
p2_c4_t1              8.56399e+09
p3_c4_t1              9.70623e+07
diff9                           0
normdiff9                       0
z_c5_t0               1.00642e+10
p0_c5_t0              3.81385e+08
p1_c5_t0              8.90991e+07
p2_c5_t0              9.54335e+09
p3_c5_t0              5.03208e+07
diff10                          0
normdiff10                      0
z_c5_t1                1.2016e+10
p0_c5_t1              2.78621e+08
p1_c5_t1              8.73811e+07
p2_c5_t1              1.14903e+10
p3_c5_t1              1.59748e+08
diff11                          0
normdiff11                      0
z_c6_t0               1.81204e+10
p0_c6_t0              6.89483e+08
p1_c6_t0              1.12562e+08
p2_c6_t0               1.7154e+10
p3_c6_t0              1.64267e+08
diff12                          0
normdiff12                      0
z_c6_t1               2.06345e+10
p0_c6_t1              7.48797e+08
p1_c6_t1              1.03172e+08
p2_c6_t1              1.96468e+10
p3_c6_t1              1.35689e+08
diff13                          0
normdiff13                      0
